
  24    0


   0  12 2 3 4 5 6 9 10 11 20 21 22 23 
   3   6 19 17 16 15 13 12 
   3   3 17 15 7 
   4   3 16 13 8 
   5   2 18 14 
   6   2 16 12 
   1   1 13 
   8   1 12 
   7   1 15 
   9   1 14 
   1   1 14 
   5   1 24
   5   1 24
   6   1 24
   6   1 24
   5   1 24
   1   1 24
   3   1 24
   1   1 24
   9   1 24
   1   1 24
   9   1 24
   4   1 24
   0   0 
